graph_size = 6;
start = 1;
n_dests = 2;
dests = [5,6];
n_edges = 7;
% The road between city1[i] and city2[i] have the cost cost[i]. Roads are bidirectional, you can travel from city2 to city1 as well as from city1 to city2.
cities_1 = [1, 1, 2,  2, 3, 4,  4];
cities_2 = [2, 3, 3,  4, 5, 5,  6];
costs    =  [4, 2, 5, 10, 3, 4, 11];
